db/data/2471204762600119768137166134792220190.z3.out
-------------------
2500.151094978
